data/instances/vrp_files/train_19.vrp
NAME : 19
COMMENT : Generated instance No. 19
TYPE : CVRP
DIMENSION : 21
EDGE_WEIGHT_TYPE : EUC_2D
CAPACITY : 30
NODE_COORD_SECTION
 1 516 906
 2 826 800
 3 629 216
 4 518 597
 5 525 260
 6 515 491
 7 996 897
 8 463 622
 9 747 34
 10 894 860
 11 457 391
 12 272 476
 13 44 852
 14 35 329
 15 931 735
 16 281 252
 17 5 695
 18 48 532
 19 962 109
 20 894 991
 21 61 882
DEMAND_SECTION
1 0
2 3
3 8
4 8
5 2
6 8
7 1
8 6
9 8
10 3
11 8
12 1
13 9
14 9
15 5
16 10
17 4
18 6
19 7
20 5
21 10
DEPOT_SECTION
 1
 -1
EOF